(set-logic LRA)
 
(define-fun OutputNeuron_0_idx0 ((onnx__MatMul_0_0 Real) (onnx__MatMul_0_1 Real) (onnx__MatMul_0_2 Real) (onnx__MatMul_0_3 Real) (onnx__MatMul_0_4 Real) (onnx__MatMul_0_5 Real) (onnx__MatMul_0_6 Real) (onnx__MatMul_0_7 Real)) Real
  (let ((a!1 (ite (<= (+ (* (/ 286013.0 500000.0) onnx__MatMul_0_0)
                       (* (/ 98161.0 500000.0) onnx__MatMul_0_1)
                       (* (- (/ 209823.0 500000.0)) onnx__MatMul_0_2)
                       (* (- (/ 129149.0 1000000.0)) onnx__MatMul_0_3)
                       (* (- (/ 162569.0 1000000.0)) onnx__MatMul_0_4)
                       (* (- (/ 661233.0 1000000.0)) onnx__MatMul_0_5)
                       (* (/ 19063.0 200000.0) onnx__MatMul_0_6)
                       (* (/ 2671.0 15625.0) onnx__MatMul_0_7))
                    (/ 93651.0 500000.0))
                0.0
                (+ (- (/ 93651.0 500000.0))
                   (* (/ 286013.0 500000.0) onnx__MatMul_0_0)
                   (* (/ 98161.0 500000.0) onnx__MatMul_0_1)
                   (* (- (/ 209823.0 500000.0)) onnx__MatMul_0_2)
                   (* (- (/ 129149.0 1000000.0)) onnx__MatMul_0_3)
                   (* (- (/ 162569.0 1000000.0)) onnx__MatMul_0_4)
                   (* (- (/ 661233.0 1000000.0)) onnx__MatMul_0_5)
                   (* (/ 19063.0 200000.0) onnx__MatMul_0_6)
                   (* (/ 2671.0 15625.0) onnx__MatMul_0_7))))
      (a!2 (ite (<= (+ (* (/ 137241.0 500000.0) onnx__MatMul_0_0)
                       (* (- (/ 345027.0 1000000.0)) onnx__MatMul_0_1)
                       (* (- (/ 85367.0 250000.0)) onnx__MatMul_0_2)
                       (* (/ 202853.0 1000000.0) onnx__MatMul_0_3)
                       (* (- (/ 22421.0 500000.0)) onnx__MatMul_0_4)
                       (* (- (/ 4797.0 200000.0)) onnx__MatMul_0_5)
                       (* (- (/ 18481.0 125000.0)) onnx__MatMul_0_6)
                       (* (- (/ 36569.0 1000000.0)) onnx__MatMul_0_7))
                    (/ 341217.0 1000000.0))
                0.0
                (+ (- (/ 341217.0 1000000.0))
                   (* (/ 137241.0 500000.0) onnx__MatMul_0_0)
                   (* (- (/ 345027.0 1000000.0)) onnx__MatMul_0_1)
                   (* (- (/ 85367.0 250000.0)) onnx__MatMul_0_2)
                   (* (/ 202853.0 1000000.0) onnx__MatMul_0_3)
                   (* (- (/ 22421.0 500000.0)) onnx__MatMul_0_4)
                   (* (- (/ 4797.0 200000.0)) onnx__MatMul_0_5)
                   (* (- (/ 18481.0 125000.0)) onnx__MatMul_0_6)
                   (* (- (/ 36569.0 1000000.0)) onnx__MatMul_0_7))))
      (a!3 (ite (<= (+ (* (- (/ 166621.0 500000.0)) onnx__MatMul_0_0)
                       (* (- (/ 75243.0 500000.0)) onnx__MatMul_0_1)
                       (* (/ 196033.0 500000.0) onnx__MatMul_0_2)
                       (* (- (/ 20869.0 125000.0)) onnx__MatMul_0_3)
                       (* (/ 379037.0 1000000.0) onnx__MatMul_0_4)
                       (* (- (/ 75749.0 250000.0)) onnx__MatMul_0_5)
                       (* (- (/ 5919.0 40000.0)) onnx__MatMul_0_6)
                       (* (- (/ 1341557.0 1000000.0)) onnx__MatMul_0_7))
                    (- (/ 360981.0 1000000.0)))
                0.0
                (+ (/ 360981.0 1000000.0)
                   (* (- (/ 166621.0 500000.0)) onnx__MatMul_0_0)
                   (* (- (/ 75243.0 500000.0)) onnx__MatMul_0_1)
                   (* (/ 196033.0 500000.0) onnx__MatMul_0_2)
                   (* (- (/ 20869.0 125000.0)) onnx__MatMul_0_3)
                   (* (/ 379037.0 1000000.0) onnx__MatMul_0_4)
                   (* (- (/ 75749.0 250000.0)) onnx__MatMul_0_5)
                   (* (- (/ 5919.0 40000.0)) onnx__MatMul_0_6)
                   (* (- (/ 1341557.0 1000000.0)) onnx__MatMul_0_7))))
      (a!4 (ite (<= (+ (* (/ 88617.0 500000.0) onnx__MatMul_0_0)
                       (* (/ 550489.0 500000.0) onnx__MatMul_0_1)
                       (* (- (/ 361589.0 1000000.0)) onnx__MatMul_0_2)
                       (* (- (/ 5133.0 40000.0)) onnx__MatMul_0_3)
                       (* (/ 127103.0 500000.0) onnx__MatMul_0_4)
                       (* (/ 46799.0 50000.0) onnx__MatMul_0_5)
                       (* (/ 439581.0 1000000.0) onnx__MatMul_0_6)
                       (* (/ 19983.0 200000.0) onnx__MatMul_0_7))
                    (/ 145157.0 250000.0))
                0.0
                (+ (- (/ 145157.0 250000.0))
                   (* (/ 88617.0 500000.0) onnx__MatMul_0_0)
                   (* (/ 550489.0 500000.0) onnx__MatMul_0_1)
                   (* (- (/ 361589.0 1000000.0)) onnx__MatMul_0_2)
                   (* (- (/ 5133.0 40000.0)) onnx__MatMul_0_3)
                   (* (/ 127103.0 500000.0) onnx__MatMul_0_4)
                   (* (/ 46799.0 50000.0) onnx__MatMul_0_5)
                   (* (/ 439581.0 1000000.0) onnx__MatMul_0_6)
                   (* (/ 19983.0 200000.0) onnx__MatMul_0_7)))))
  (+ (/ 1084631.0 1000000.0)
     (* (- (/ 1546823.0 1000000.0)) a!1)
     (* (- (/ 3477.0 500000.0)) a!2)
     (* (/ 1077563.0 500000.0) a!3)
     (* (- (/ 2200431.0 1000000.0)) a!4)))
)

(define-fun OutputNeuron_0_idx1 ((onnx__MatMul_0_0 Real) (onnx__MatMul_0_1 Real) (onnx__MatMul_0_2 Real) (onnx__MatMul_0_3 Real) (onnx__MatMul_0_4 Real) (onnx__MatMul_0_5 Real) (onnx__MatMul_0_6 Real) (onnx__MatMul_0_7 Real)) Real
  (let ((a!1 (ite (<= (+ (* (/ 286013.0 500000.0) onnx__MatMul_0_0)
                       (* (/ 98161.0 500000.0) onnx__MatMul_0_1)
                       (* (- (/ 209823.0 500000.0)) onnx__MatMul_0_2)
                       (* (- (/ 129149.0 1000000.0)) onnx__MatMul_0_3)
                       (* (- (/ 162569.0 1000000.0)) onnx__MatMul_0_4)
                       (* (- (/ 661233.0 1000000.0)) onnx__MatMul_0_5)
                       (* (/ 19063.0 200000.0) onnx__MatMul_0_6)
                       (* (/ 2671.0 15625.0) onnx__MatMul_0_7))
                    (/ 93651.0 500000.0))
                0.0
                (+ (- (/ 93651.0 500000.0))
                   (* (/ 286013.0 500000.0) onnx__MatMul_0_0)
                   (* (/ 98161.0 500000.0) onnx__MatMul_0_1)
                   (* (- (/ 209823.0 500000.0)) onnx__MatMul_0_2)
                   (* (- (/ 129149.0 1000000.0)) onnx__MatMul_0_3)
                   (* (- (/ 162569.0 1000000.0)) onnx__MatMul_0_4)
                   (* (- (/ 661233.0 1000000.0)) onnx__MatMul_0_5)
                   (* (/ 19063.0 200000.0) onnx__MatMul_0_6)
                   (* (/ 2671.0 15625.0) onnx__MatMul_0_7))))
      (a!2 (ite (<= (+ (* (/ 137241.0 500000.0) onnx__MatMul_0_0)
                       (* (- (/ 345027.0 1000000.0)) onnx__MatMul_0_1)
                       (* (- (/ 85367.0 250000.0)) onnx__MatMul_0_2)
                       (* (/ 202853.0 1000000.0) onnx__MatMul_0_3)
                       (* (- (/ 22421.0 500000.0)) onnx__MatMul_0_4)
                       (* (- (/ 4797.0 200000.0)) onnx__MatMul_0_5)
                       (* (- (/ 18481.0 125000.0)) onnx__MatMul_0_6)
                       (* (- (/ 36569.0 1000000.0)) onnx__MatMul_0_7))
                    (/ 341217.0 1000000.0))
                0.0
                (+ (- (/ 341217.0 1000000.0))
                   (* (/ 137241.0 500000.0) onnx__MatMul_0_0)
                   (* (- (/ 345027.0 1000000.0)) onnx__MatMul_0_1)
                   (* (- (/ 85367.0 250000.0)) onnx__MatMul_0_2)
                   (* (/ 202853.0 1000000.0) onnx__MatMul_0_3)
                   (* (- (/ 22421.0 500000.0)) onnx__MatMul_0_4)
                   (* (- (/ 4797.0 200000.0)) onnx__MatMul_0_5)
                   (* (- (/ 18481.0 125000.0)) onnx__MatMul_0_6)
                   (* (- (/ 36569.0 1000000.0)) onnx__MatMul_0_7))))
      (a!3 (ite (<= (+ (* (- (/ 166621.0 500000.0)) onnx__MatMul_0_0)
                       (* (- (/ 75243.0 500000.0)) onnx__MatMul_0_1)
                       (* (/ 196033.0 500000.0) onnx__MatMul_0_2)
                       (* (- (/ 20869.0 125000.0)) onnx__MatMul_0_3)
                       (* (/ 379037.0 1000000.0) onnx__MatMul_0_4)
                       (* (- (/ 75749.0 250000.0)) onnx__MatMul_0_5)
                       (* (- (/ 5919.0 40000.0)) onnx__MatMul_0_6)
                       (* (- (/ 1341557.0 1000000.0)) onnx__MatMul_0_7))
                    (- (/ 360981.0 1000000.0)))
                0.0
                (+ (/ 360981.0 1000000.0)
                   (* (- (/ 166621.0 500000.0)) onnx__MatMul_0_0)
                   (* (- (/ 75243.0 500000.0)) onnx__MatMul_0_1)
                   (* (/ 196033.0 500000.0) onnx__MatMul_0_2)
                   (* (- (/ 20869.0 125000.0)) onnx__MatMul_0_3)
                   (* (/ 379037.0 1000000.0) onnx__MatMul_0_4)
                   (* (- (/ 75749.0 250000.0)) onnx__MatMul_0_5)
                   (* (- (/ 5919.0 40000.0)) onnx__MatMul_0_6)
                   (* (- (/ 1341557.0 1000000.0)) onnx__MatMul_0_7))))
      (a!4 (ite (<= (+ (* (/ 88617.0 500000.0) onnx__MatMul_0_0)
                       (* (/ 550489.0 500000.0) onnx__MatMul_0_1)
                       (* (- (/ 361589.0 1000000.0)) onnx__MatMul_0_2)
                       (* (- (/ 5133.0 40000.0)) onnx__MatMul_0_3)
                       (* (/ 127103.0 500000.0) onnx__MatMul_0_4)
                       (* (/ 46799.0 50000.0) onnx__MatMul_0_5)
                       (* (/ 439581.0 1000000.0) onnx__MatMul_0_6)
                       (* (/ 19983.0 200000.0) onnx__MatMul_0_7))
                    (/ 145157.0 250000.0))
                0.0
                (+ (- (/ 145157.0 250000.0))
                   (* (/ 88617.0 500000.0) onnx__MatMul_0_0)
                   (* (/ 550489.0 500000.0) onnx__MatMul_0_1)
                   (* (- (/ 361589.0 1000000.0)) onnx__MatMul_0_2)
                   (* (- (/ 5133.0 40000.0)) onnx__MatMul_0_3)
                   (* (/ 127103.0 500000.0) onnx__MatMul_0_4)
                   (* (/ 46799.0 50000.0) onnx__MatMul_0_5)
                   (* (/ 439581.0 1000000.0) onnx__MatMul_0_6)
                   (* (/ 19983.0 200000.0) onnx__MatMul_0_7)))))
  (+ (- (/ 1151919.0 1000000.0))
     (* (/ 797633.0 1000000.0) a!1)
     (* (/ 92593.0 500000.0) a!2)
     (* (- (/ 2345347.0 1000000.0)) a!3)
     (* (/ 2053741.0 1000000.0) a!4)))
)

; --- OutputFunctions --- 
; Output_0: OutputNeuron_0_idx0 
; Output_1: OutputNeuron_0_idx1 
; --- NetworkFinished --- 
